p cnf 31413 78
-8 9 -1 0
-8 10 -1 0
-8 11 -1 0
-8 -16 -1 0
-8 -17 -1 0
-8 -18 -1 0
-8 -19 -1 0
-8 -20 -1 0
-8 23 -1 0
-8 24 -1 0
-8 25 -1 0
-8 26 -1 0
-8 27 -1 0
-6 8 -1 -30 0
-1 30 0
-50 51 -43 0
-50 52 -43 0
-50 53 -43 0
-50 -55 -43 0
-50 -56 -43 0
-50 -57 -43 0
-48 50 -43 -60 0
-43 60 0
-79 80 -72 0
-79 81 -72 0
-79 82 -72 0
-79 -84 -72 0
-79 -85 -72 0
-79 -86 -72 0
-77 79 -72 -89 0
-72 89 0
-107 108 -100 0
-107 109 -100 0
-107 110 -100 0
-107 -112 -100 0
-107 -113 -100 0
-107 -114 -100 0
-107 116 -100 0
-105 107 -100 -117 0
-100 117 0
-134 135 -127 0
-134 136 -127 0
-134 137 -127 0
-134 -139 -127 0
-134 -140 -127 0
-134 -141 -127 0
-134 -142 -127 0
-134 143 -127 0
-132 134 -127 -144 0
-127 144 0
-168 -165 -153 0
-168 166 -153 0
-169 168 -160 -153 0
-170 169 -153 0
-170 171 -153 0
-170 172 -153 0
-170 173 -153 0
-170 -175 -153 0
-170 -177 -153 0
-170 179 -153 0
-158 170 -153 -180 0
-153 180 0
12 -145 0
13 -145 0
14 -145 0
-145 -31402 0
-145 -31403 0
-145 31404 0
-145 31405 0
6 -273 0
132 -273 0
105 -273 0
77 -273 0
48 -273 0
158 -273 0
160 -273 0
-166 -3 -116 -273 31402 31403 -31404 -31405 142 -143 -179 -173 177 -172 165 -171 175 -10 -11 -13 -14 17 18 19 20 -23 -24 -26 -27 -51 -52 -53 55 56 57 -80 -81 -82 84 85 86 -108 -109 -110 112 113 114 -135 -136 -137 139 140 141 0
-166 3 -143 -273 31402 31403 -31404 -31405 -179 -173 177 -172 165 -171 175 -9 -10 -11 -12 -13 -14 16 17 18 19 20 -23 -24 -25 -26 -27 -51 -52 -53 55 56 57 -80 -81 -82 84 85 86 -108 -109 -110 112 113 114 -135 -136 -137 139 140 141 0
